assets/logs/10_8x8_clingo/10_8x8_clingo.solution.log

---------------------------------
| 56| 50| 16| 46|  3|  6| 35| 29|
---------------------------------
|  1| 44| 54| 32| 37| 31|  5|  4|
---------------------------------
| 52| 18| 48| 14|  8| 30| 27| 33|
---------------------------------
| 42|  1|  1| 39| 34| 12|  2|  7|
---------------------------------
|  0| 17| 20| 10| 28| 41|  1| 25|
---------------------------------
| 57| 40| 13| 36| 22| 47|  9| 43|
---------------------------------
| 15|  1| 19| 53| 11| 26| 23| 49|
---------------------------------
|  1| 55| 38| 24| 21| 51| 45|  1|
---------------------------------

| n = 8 | k = 7 | coverage = 63, 98.4375%
 Time 299.999
 Name 10_8x8_clingo

