assets/logs/10_8x8_clingo/10_8x8_clingo.log
clingo version 5.4.0
Reading from ...ets/logs/10_8x8_clingo/knights_tour.lp ...
Solving...
Answer: 1
occ(1,7,2) occ(1,8,1) occ(1,4,3) occ(1,4,2) occ(1,8,8) occ(1,2,1) occ(1,5,7) occ(2,4,7) occ(3,1,5) coverage(6)
Optimization: -6
Answer: 2
occ(1,7,2) occ(1,8,1) occ(1,4,3) occ(1,4,2) occ(1,8,8) occ(1,2,1) occ(1,5,7) occ(2,4,7) occ(3,1,5) coverage(8) occ(5,2,7) occ(7,4,8) occ(4,6,8) occ(6,8,7)
Optimization: -8
Answer: 3
occ(1,7,2) occ(1,8,1) occ(1,4,3) occ(1,4,2) occ(1,8,8) occ(1,2,1) occ(1,5,7) occ(2,4,7) occ(3,1,5) coverage(34) occ(25,1,2) occ(31,1,1) occ(39,1,7) occ(57,1,8) occ(61,1,4) occ(5,2,7) occ(11,2,2) occ(27,2,4) occ(33,2,3) occ(37,2,5) occ(59,2,6) occ(4,3,5) occ(9,3,4) occ(23,3,1) occ(29,3,2) occ(41,3,6) occ(55,3,7) occ(63,3,3) occ(7,4,6) occ(13,4,1) occ(35,4,4) occ(43,4,8) occ(6,5,4) occ(16,5,5) occ(21,5,2) occ(45,5,6) occ(53,5,8) occ(10,6,5) occ(15,6,2) occ(18,6,3) occ(28,6,6) occ(47,6,4) occ(8,7,3) occ(14,7,6) occ(19,7,1) occ(22,7,4) occ(26,7,8) occ(32,7,5) occ(51,7,7) occ(12,8,4) occ(17,8,3) occ(20,8,2) occ(24,8,6) occ(30,8,7) occ(49,8,5)
Optimization: -34
Answer: 4
occ(1,7,2) occ(1,8,1) occ(1,4,3) occ(1,4,2) occ(1,8,8) occ(1,2,1) occ(1,5,7) occ(2,4,7) occ(3,1,5) coverage(36) occ(25,1,2) occ(31,1,1) occ(39,1,7) occ(57,1,8) occ(61,1,4) occ(5,2,7) occ(11,2,2) occ(27,2,4) occ(33,2,3) occ(37,2,5) occ(59,2,6) occ(4,3,5) occ(9,3,4) occ(23,3,1) occ(29,3,2) occ(41,3,6) occ(55,3,7) occ(63,3,3) occ(7,4,6) occ(13,4,1) occ(35,4,4) occ(43,4,8) occ(6,5,4) occ(16,5,5) occ(21,5,2) occ(45,5,6) occ(53,5,8) occ(10,6,5) occ(15,6,2) occ(18,6,3) occ(28,6,6) occ(34,6,7) occ(47,6,4) occ(8,7,3) occ(14,7,6) occ(19,7,1) occ(22,7,4) occ(26,7,8) occ(32,7,5) occ(51,7,7) occ(12,8,4) occ(17,8,3) occ(20,8,2) occ(24,8,6) occ(30,8,7) occ(49,8,5)
Optimization: -36
Answer: 5
occ(1,7,2) occ(1,8,1) occ(1,4,3) occ(1,4,2) occ(1,8,8) occ(1,2,1) occ(1,5,7) occ(2,4,7) occ(3,1,5) coverage(38) occ(9,1,4) occ(25,1,2) occ(31,1,1) occ(39,1,7) occ(57,1,6) occ(7,2,6) occ(11,2,2) occ(27,2,4) occ(33,2,3) occ(37,2,5) occ(59,2,8) occ(4,3,5) occ(5,3,4) occ(23,3,1) occ(29,3,2) occ(41,3,6) occ(55,3,7) occ(13,4,1) occ(35,4,4) occ(36,4,6) occ(43,4,8) occ(6,5,4) occ(16,5,5) occ(21,5,2) occ(45,5,6) occ(53,5,8) occ(10,6,5) occ(15,6,2) occ(18,6,3) occ(28,6,6) occ(34,6,7) occ(47,6,4) occ(8,7,3) occ(14,7,6) occ(19,7,1) occ(22,7,4) occ(26,7,8) occ(32,7,5) occ(51,7,7) occ(12,8,4) occ(17,8,3) occ(20,8,2) occ(24,8,6) occ(30,8,7) occ(49,8,5)
Optimization: -38
Answer: 6
occ(1,7,2) occ(1,8,1) occ(1,4,3) occ(1,4,2) occ(1,8,8) occ(1,2,1) occ(1,5,7) occ(2,4,7) occ(3,1,5) coverage(40) occ(9,1,4) occ(25,1,2) occ(31,1,1) occ(39,1,7) occ(57,1,6) occ(7,2,6) occ(11,2,2) occ(27,2,4) occ(33,2,3) occ(37,2,5) occ(59,2,8) occ(4,3,5) occ(5,3,4) occ(23,3,1) occ(29,3,2) occ(38,3,8) occ(41,3,6) occ(55,3,7) occ(13,4,1) occ(35,4,4) occ(36,4,6) occ(43,4,8) occ(6,5,4) occ(16,5,5) occ(21,5,2) occ(45,5,6) occ(53,5,8) occ(10,6,5) occ(15,6,2) occ(18,6,3) occ(28,6,6) occ(34,6,7) occ(47,6,4) occ(8,7,3) occ(14,7,6) occ(19,7,1) occ(22,7,4) occ(26,7,8) occ(32,7,5) occ(51,7,7) occ(12,8,4) occ(17,8,3) occ(20,8,2) occ(24,8,6) occ(30,8,7) occ(49,8,5)
Optimization: -40
Answer: 7
occ(1,7,2) occ(1,8,1) occ(1,4,3) occ(1,4,2) occ(1,8,8) occ(1,2,1) occ(1,5,7) occ(2,4,7) occ(3,1,5) coverage(42) occ(25,1,2) occ(31,1,1) occ(39,1,7) occ(57,1,6) occ(27,2,4) occ(33,2,3) occ(37,2,5) occ(40,2,6) occ(59,2,8) occ(4,3,5) occ(5,3,4) occ(11,3,3) occ(23,3,1) occ(29,3,2) occ(38,3,8) occ(41,3,6) occ(55,3,7) occ(9,4,5) occ(13,4,1) occ(35,4,4) occ(36,4,6) occ(43,4,8) occ(6,5,4) occ(7,5,3) occ(16,5,5) occ(21,5,2) occ(45,5,6) occ(53,5,8) occ(10,6,5) occ(15,6,2) occ(18,6,3) occ(28,6,6) occ(34,6,7) occ(47,6,4) occ(8,7,3) occ(14,7,6) occ(19,7,1) occ(22,7,4) occ(26,7,8) occ(32,7,5) occ(51,7,7) occ(12,8,4) occ(17,8,3) occ(20,8,2) occ(24,8,6) occ(30,8,7) occ(49,8,5)
Optimization: -42
Answer: 8
occ(1,7,2) occ(1,8,1) occ(1,4,3) occ(1,4,2) occ(1,8,8) occ(1,2,1) occ(1,5,7) occ(2,4,7) occ(3,1,5) coverage(44) occ(25,1,2) occ(31,1,1) occ(39,1,7) occ(42,1,8) occ(57,1,6) occ(27,2,4) occ(33,2,3) occ(37,2,5) occ(40,2,6) occ(59,2,8) occ(4,3,5) occ(5,3,4) occ(11,3,3) occ(23,3,1) occ(29,3,2) occ(38,3,8) occ(41,3,6) occ(55,3,7) occ(9,4,5) occ(13,4,1) occ(35,4,4) occ(36,4,6) occ(43,4,8) occ(6,5,4) occ(7,5,3) occ(16,5,5) occ(21,5,2) occ(45,5,6) occ(53,5,8) occ(10,6,5) occ(15,6,2) occ(18,6,3) occ(28,6,6) occ(34,6,7) occ(47,6,4) occ(8,7,3) occ(14,7,6) occ(19,7,1) occ(22,7,4) occ(26,7,8) occ(32,7,5) occ(51,7,7) occ(12,8,4) occ(17,8,3) occ(20,8,2) occ(24,8,6) occ(30,8,7) occ(49,8,5)
Optimization: -44
Answer: 9
occ(1,7,2) occ(1,8,1) occ(1,4,3) occ(1,4,2) occ(1,8,8) occ(1,2,1) occ(1,5,7) occ(2,4,7) occ(3,1,5) coverage(46) occ(25,1,2) occ(31,1,1) occ(39,1,7) occ(42,1,4) occ(57,1,6) occ(27,2,4) occ(33,2,3) occ(37,2,5) occ(40,2,6) occ(44,2,2) occ(59,2,8) occ(4,3,5) occ(5,3,4) occ(11,3,3) occ(23,3,1) occ(29,3,2) occ(38,3,8) occ(41,3,6) occ(55,3,7) occ(9,4,5) occ(13,4,1) occ(35,4,4) occ(36,4,6) occ(43,4,8) occ(6,5,4) occ(7,5,3) occ(16,5,5) occ(21,5,2) occ(45,5,6) occ(53,5,8) occ(10,6,5) occ(15,6,2) occ(18,6,3) occ(28,6,6) occ(34,6,7) occ(47,6,4) occ(8,7,3) occ(14,7,6) occ(19,7,1) occ(22,7,4) occ(26,7,8) occ(32,7,5) occ(51,7,7) occ(12,8,4) occ(17,8,3) occ(20,8,2) occ(24,8,6) occ(30,8,7) occ(49,8,5)
Optimization: -46
Answer: 10
occ(1,7,2) occ(1,8,1) occ(1,4,3) occ(1,4,2) occ(1,8,8) occ(1,2,1) occ(1,5,7) occ(2,4,7) occ(3,1,5) coverage(48) occ(9,1,4) occ(25,1,2) occ(31,1,1) occ(39,1,7) occ(57,1,6) occ(7,2,2) occ(27,2,4) occ(33,2,3) occ(37,2,5) occ(40,2,6) occ(59,2,8) occ(4,3,5) occ(5,3,4) occ(11,3,3) occ(23,3,1) occ(29,3,2) occ(38,3,8) occ(41,3,6) occ(55,3,7) occ(13,4,1) occ(35,4,4) occ(36,4,6) occ(42,4,5) occ(43,4,8) occ(6,5,4) occ(16,5,5) occ(21,5,2) occ(44,5,3) occ(45,5,6) occ(53,5,8) occ(10,6,5) occ(15,6,2) occ(18,6,3) occ(28,6,6) occ(34,6,7) occ(46,6,1) occ(47,6,4) occ(8,7,3) occ(14,7,6) occ(19,7,1) occ(22,7,4) occ(26,7,8) occ(32,7,5) occ(51,7,7) occ(12,8,4) occ(17,8,3) occ(20,8,2) occ(24,8,6) occ(30,8,7) occ(49,8,5)
Optimization: -48
Answer: 11
occ(1,7,2) occ(1,8,1) occ(1,4,3) occ(1,4,2) occ(1,8,8) occ(1,2,1) occ(1,5,7) occ(2,4,7) occ(3,1,5) coverage(50) occ(6,1,4) occ(34,1,8) occ(40,1,7) occ(48,1,3) occ(5,2,7) occ(8,2,2) occ(19,2,4) occ(36,2,6) occ(42,2,5) occ(4,3,5) occ(10,3,4) occ(21,3,6) occ(32,3,7) occ(38,3,8) occ(46,3,2) occ(47,3,3) occ(7,4,8) occ(17,4,5) occ(44,4,4) occ(49,4,1) occ(9,5,6) occ(12,5,3) occ(23,5,5) occ(29,5,4) occ(30,5,8) occ(45,5,2) occ(11,6,8) occ(14,6,1) occ(15,6,6) occ(18,6,3) occ(24,6,4) occ(25,6,7) occ(33,6,5) occ(39,6,2) occ(22,7,6) occ(27,7,5) occ(28,7,7) occ(31,7,3) occ(37,7,4) occ(43,7,1) occ(13,8,7) occ(16,8,2) occ(20,8,4) occ(26,8,5) occ(35,8,6) occ(41,8,3)
Optimization: -50
Answer: 12
occ(1,7,2) occ(1,8,1) occ(1,4,3) occ(1,4,2) occ(1,8,8) occ(1,2,1) occ(1,5,7) occ(2,4,7) occ(3,1,5) coverage(51) occ(6,1,4) occ(34,1,8) occ(40,1,7) occ(44,1,3) occ(48,1,1) occ(54,1,2) occ(5,2,7) occ(8,2,2) occ(19,2,4) occ(36,2,6) occ(42,2,5) occ(50,2,3) occ(4,3,5) occ(10,3,4) occ(21,3,6) occ(32,3,7) occ(38,3,8) occ(46,3,2) occ(47,3,3) occ(52,3,1) occ(7,4,8) occ(17,4,5) occ(49,4,1) occ(9,5,6) occ(12,5,3) occ(23,5,5) occ(29,5,4) occ(30,5,8) occ(45,5,2) occ(11,6,8) occ(14,6,1) occ(15,6,6) occ(18,6,3) occ(24,6,4) occ(25,6,7) occ(33,6,5) occ(39,6,2) occ(22,7,6) occ(27,7,5) occ(28,7,7) occ(31,7,3) occ(37,7,4) occ(43,7,1) occ(13,8,7) occ(16,8,2) occ(20,8,4) occ(26,8,5) occ(35,8,6) occ(41,8,3)
Optimization: -51
Answer: 13
occ(1,7,2) occ(1,8,1) occ(1,4,3) occ(1,4,2) occ(1,8,8) occ(1,2,1) occ(1,5,7) occ(2,4,7) occ(3,1,5) coverage(52) occ(17,1,2) occ(25,1,4) occ(29,1,6) occ(51,1,7) occ(5,2,7) occ(15,2,4) occ(23,2,2) occ(33,2,5) occ(47,2,6) occ(50,2,3) occ(9,3,6) occ(13,3,2) occ(19,3,3) occ(27,3,5) occ(31,3,7) occ(45,3,4) occ(48,3,1) occ(49,3,8) occ(7,4,8) occ(11,4,4) occ(21,4,1) occ(34,4,5) occ(35,4,6) occ(6,5,4) occ(30,5,6) occ(36,5,3) occ(43,5,5) occ(46,5,2) occ(4,6,6) occ(8,6,2) occ(16,6,8) occ(22,6,5) occ(32,6,4) occ(37,6,7) occ(38,6,1) occ(42,6,3) occ(12,7,5) occ(18,7,6) occ(24,7,3) occ(28,7,7) occ(41,7,4) occ(44,7,1) occ(10,8,3) occ(14,8,7) occ(20,8,4) occ(26,8,5) occ(39,8,6) occ(40,8,2)
Optimization: -52
Answer: 14
occ(1,7,2) occ(1,8,1) occ(1,4,3) occ(1,4,2) occ(1,8,8) occ(1,2,1) occ(1,5,7) occ(2,4,7) occ(3,1,5) coverage(53) occ(17,1,2) occ(25,1,4) occ(29,1,6) occ(51,1,7) occ(52,1,1) occ(5,2,7) occ(15,2,4) occ(23,2,2) occ(33,2,5) occ(47,2,6) occ(50,2,3) occ(9,3,6) occ(13,3,2) occ(19,3,3) occ(27,3,5) occ(31,3,7) occ(45,3,4) occ(48,3,1) occ(49,3,8) occ(7,4,8) occ(11,4,4) occ(21,4,1) occ(34,4,5) occ(35,4,6) occ(6,5,4) occ(30,5,6) occ(36,5,3) occ(43,5,5) occ(46,5,2) occ(4,6,6) occ(8,6,2) occ(16,6,8) occ(22,6,5) occ(32,6,4) occ(37,6,7) occ(38,6,1) occ(42,6,3) occ(12,7,5) occ(18,7,6) occ(24,7,3) occ(28,7,7) occ(41,7,4) occ(44,7,1) occ(10,8,3) occ(14,8,7) occ(20,8,4) occ(26,8,5) occ(39,8,6) occ(40,8,2)
Optimization: -53
Answer: 15
occ(1,7,2) occ(1,8,1) occ(1,4,3) occ(1,4,2) occ(1,8,8) occ(1,2,1) occ(1,5,7) occ(2,4,7) occ(3,1,5) coverage(54) occ(18,1,6) occ(21,1,2) occ(24,1,7) occ(43,1,3) occ(46,1,4) occ(52,1,1) occ(5,2,7) occ(20,2,8) occ(23,2,4) occ(28,2,6) occ(41,2,5) occ(44,2,2) occ(50,2,3) occ(16,3,7) occ(19,3,1) occ(22,3,6) occ(25,3,2) occ(26,3,8) occ(45,3,4) occ(48,3,5) occ(7,4,8) occ(30,4,5) occ(39,4,4) occ(42,4,1) occ(47,4,6) occ(6,5,4) occ(11,5,5) occ(14,5,8) occ(17,5,2) occ(27,5,1) occ(32,5,3) occ(37,5,6) occ(4,6,6) occ(9,6,7) occ(15,6,4) occ(29,6,3) occ(34,6,1) occ(35,6,8) occ(40,6,2) occ(49,6,5) occ(8,7,3) occ(12,7,7) occ(13,7,6) occ(31,7,5) occ(38,7,4) occ(53,7,8) occ(10,8,5) occ(33,8,7) occ(36,8,2) occ(51,8,6)
Optimization: -54
Answer: 16
occ(1,7,2) occ(1,8,1) occ(1,4,3) occ(1,4,2) occ(1,8,8) occ(1,2,1) occ(1,5,7) occ(2,4,7) occ(3,1,5) coverage(55) occ(6,1,6) occ(10,1,4) occ(16,1,3) occ(29,1,8) occ(35,1,7) occ(46,1,2) occ(4,2,8) occ(5,2,7) occ(12,2,2) occ(31,2,6) occ(32,2,4) occ(37,2,5) occ(50,2,3) occ(8,3,5) occ(14,3,4) occ(18,3,2) occ(27,3,7) occ(30,3,6) occ(33,3,8) occ(44,3,3) occ(48,3,1) occ(7,4,8) occ(34,4,5) occ(39,4,6) occ(42,4,1) occ(52,4,4) occ(17,5,2) occ(20,5,3) occ(25,5,8) occ(28,5,5) occ(41,5,4) occ(54,5,6) occ(9,6,7) occ(13,6,3) occ(22,6,5) occ(36,6,4) occ(40,6,2) occ(43,6,6) occ(53,6,1) occ(56,6,8) occ(11,7,5) occ(15,7,1) occ(19,7,3) occ(23,7,7) occ(26,7,6) occ(45,7,8) occ(49,7,4) occ(21,8,5) occ(24,8,4) occ(38,8,3) occ(47,8,6) occ(51,8,2) occ(58,8,7)
Optimization: -55
Answer: 17
occ(1,7,2) occ(1,8,1) occ(1,4,3) occ(1,4,2) occ(1,8,8) occ(1,2,1) occ(1,5,7) occ(2,4,7) occ(3,1,5) coverage(56) occ(6,1,6) occ(16,1,3) occ(29,1,8) occ(35,1,7) occ(46,1,4) occ(50,1,2) occ(4,2,8) occ(5,2,7) occ(31,2,6) occ(32,2,4) occ(37,2,5) occ(44,2,2) occ(54,2,3) occ(8,3,5) occ(14,3,4) occ(18,3,2) occ(27,3,7) occ(30,3,6) occ(33,3,8) occ(48,3,3) occ(52,3,1) occ(7,4,8) occ(12,4,6) occ(34,4,5) occ(39,4,4) occ(42,4,1) occ(10,5,4) occ(17,5,2) occ(20,5,3) occ(25,5,8) occ(28,5,5) occ(41,5,6) occ(9,6,7) occ(13,6,3) occ(22,6,5) occ(36,6,4) occ(40,6,2) occ(43,6,8) occ(47,6,6) occ(57,6,1) occ(11,7,5) occ(15,7,1) occ(19,7,3) occ(23,7,7) occ(26,7,6) occ(49,7,8) occ(53,7,4) occ(21,8,5) occ(24,8,4) occ(38,8,3) occ(45,8,7) occ(51,8,6) occ(55,8,2)
Optimization: -56
Answer: 18
occ(1,7,2) occ(1,8,1) occ(1,4,3) occ(1,4,2) occ(1,8,8) occ(1,2,1) occ(1,5,7) occ(2,4,7) occ(3,1,5) coverage(57) occ(6,1,6) occ(16,1,3) occ(29,1,8) occ(35,1,7) occ(46,1,4) occ(50,1,2) occ(56,1,1) occ(4,2,8) occ(5,2,7) occ(31,2,6) occ(32,2,4) occ(37,2,5) occ(44,2,2) occ(54,2,3) occ(8,3,5) occ(14,3,4) occ(18,3,2) occ(27,3,7) occ(30,3,6) occ(33,3,8) occ(48,3,3) occ(52,3,1) occ(7,4,8) occ(12,4,6) occ(34,4,5) occ(39,4,4) occ(42,4,1) occ(10,5,4) occ(17,5,2) occ(20,5,3) occ(25,5,8) occ(28,5,5) occ(41,5,6) occ(9,6,7) occ(13,6,3) occ(22,6,5) occ(36,6,4) occ(40,6,2) occ(43,6,8) occ(47,6,6) occ(11,7,5) occ(15,7,1) occ(19,7,3) occ(23,7,7) occ(26,7,6) occ(49,7,8) occ(53,7,4) occ(21,8,5) occ(24,8,4) occ(38,8,3) occ(45,8,7) occ(51,8,6) occ(55,8,2)
Optimization: -57
Answer: 19
occ(1,7,2) occ(1,8,1) occ(1,4,3) occ(1,4,2) occ(1,8,8) occ(1,2,1) occ(1,5,7) occ(2,4,7) occ(3,1,5) coverage(58) occ(6,1,6) occ(16,1,3) occ(29,1,8) occ(35,1,7) occ(46,1,4) occ(50,1,2) occ(56,1,1) occ(4,2,8) occ(5,2,7) occ(31,2,6) occ(32,2,4) occ(37,2,5) occ(44,2,2) occ(54,2,3) occ(8,3,5) occ(14,3,4) occ(18,3,2) occ(27,3,7) occ(30,3,6) occ(33,3,8) occ(48,3,3) occ(52,3,1) occ(7,4,8) occ(12,4,6) occ(34,4,5) occ(39,4,4) occ(42,4,1) occ(10,5,4) occ(17,5,2) occ(20,5,3) occ(25,5,8) occ(28,5,5) occ(41,5,6) occ(9,6,7) occ(13,6,3) occ(22,6,5) occ(36,6,4) occ(40,6,2) occ(43,6,8) occ(47,6,6) occ(57,6,1) occ(11,7,5) occ(15,7,1) occ(19,7,3) occ(23,7,7) occ(26,7,6) occ(49,7,8) occ(53,7,4) occ(21,8,5) occ(24,8,4) occ(38,8,3) occ(45,8,7) occ(51,8,6) occ(55,8,2)
Optimization: -58
*** Info : (clingo): INTERRUPTED by signal!
SATISFIABLE

TIME LIMIT   : 1
Models       : 19+
  Optimum    : unknown
Optimization : -58
Calls        : 1
Time         : 300.000s (Solving: 299.70s 1st Model: 0.00s Unsat: 0.00s)
CPU Time     : 299.999s
